r = [
0,167,256,139,97,288,158,305,83,307,273,318,117,401,339,183,345,187,60,225,58,270,412,120,160,408,0
];
p = [
0,9,29,21,1,8,23,30,17,20,18,13,24,23,27,7,25,18,21,28,28,23,7,5,16,23,0
];
e = [
0,7,8,5,8,14,1,9,1,10,20,5,3,15,12,20,12,16,10,1,2,2,6,17,16,10,0
];
d = [
0,176,326,160,98,422,220,335,134,346,407,331,265,488,370,190,411,205,81,253,86,293,555,269,263,440,559
];
d_bar = [
0,181,341,171,99,426,232,350,143,356,416,338,277,500,384,194,424,214,92,267,100,305,559,272,271,452,559
];
w = [
0,1.4,0.533333333,0.454545455,8,3.5,0.083333333,0.6,0.111111111,1,2.222222222,0.714285714,0.25,1.25,0.857142857,5,0.923076923,1.777777778,0.909090909,0.071428571,0.142857143,0.166666667,1.5,5.666666667,2,0.833333333,0
];
